c A SAT instance generated from a 3-CNF formula that had 44 clauses and 11 variables
p cnf 11 44
6 8 11 0
8 -6 -9 0
-4 2 -3 0
-3 10 1 0
1 11 -9 0
3 9 -4 0
11 10 -5 0
2 8 11 0
-2 -8 -10 0
1 -5 -6 0
1 -5 9 0
10 -5 4 0
2 -10 6 0
8 -9 -6 0
-7 4 1 0
-7 -11 -2 0
2 -8 10 0
-4 -1 -6 0
-5 7 4 0
-6 -2 11 0
3 -2 7 0
-8 1 -6 0
-3 -10 9 0
2 -4 10 0
-8 2 11 0
3 9 1 0
-4 5 -3 0
-6 -1 11 0
8 1 7 0
-5 1 11 0
-9 -10 -8 0
-11 -8 -7 0
-10 -1 5 0
8 -5 -4 0
-6 4 -9 0
10 -1 9 0
-1 -3 9 0
-2 -3 4 0
-6 4 2 0
6 3 -4 0
-7 -11 -1 0
8 -4 5 0
-3 -9 11 0
1 -6 -3 0
